p cnf 38 123
3 -1 0
3 2 0
1 -2 -3 0
-5 1 0
-5 -4 0
-1 4 5 0
6 3 0
6 -5 0
-3 5 -6 0
7 8 -9 0
-7 -8 -9 0
7 -8 9 0
-7 8 9 0
11 -10 0
11 4 0
10 -4 -11 0
-13 14 -15 0
13 -14 -15 0
-13 -14 15 0
13 14 15 0
-16 12 0
-16 15 0
-12 -15 16 0
-17 11 0
-17 -16 0
-11 16 17 0
9 -17 -18 0
-9 17 -18 0
9 17 18 0
-9 -17 18 0
19 -2 0
19 13 0
2 -13 -19 0
-12 14 -20 0
12 -14 -20 0
-12 -14 20 0
12 14 20 0
20 14 -21 0
-20 -14 -21 0
20 -14 21 0
-20 14 21 0
22 12 0
22 21 0
-12 -21 -22 0
23 19 0
23 -22 0
-19 22 -23 0
13 24 -25 0
-13 -24 -25 0
13 -24 25 0
-13 24 25 0
-26 -23 0
-26 25 0
23 -25 26 0
-27 13 0
-27 20 0
-13 -20 27 0
-5 13 -28 0
5 -13 -28 0
-5 -13 28 0
5 13 28 0
21 -29 0
-21 -29 0
30 28 0
30 29 0
-28 -29 -30 0
-1 -12 -31 0
1 12 -31 0
-1 12 31 0
1 -12 31 0
-5 -3 -32 0
5 3 -32 0
-5 3 32 0
5 -3 32 0
-33 -31 0
-33 32 0
31 -32 33 0
34 30 0
34 -33 0
-30 33 -34 0
35 27 0
35 34 0
-27 -34 -35 0
26 -35 -36 0
-26 35 -36 0
26 35 36 0
-26 -35 36 0
18 36 -37 0
-18 -36 -37 0
18 -36 37 0
-18 36 37 0
38 -6 0
38 -37 0
6 37 -38 0
-34 -16 0
38 19 0
11 21 3 1 16 0
37 25 28 -29 33 0
2 -31 -30 4 -14 28 0
14 -9 28 5 26 0
38 7 -19 -35 -2 0
-25 -1 -24 0
12 23 -16 -21 22 0
24 -28 5 31 0
-26 -12 19 17 0
-1 -21 -23 0
-27 -18 0
34 35 0
13 -5 3 0
12 -25 29 37 0
8 -30 0
31 28 0
-9 36 0
-9 -32 -22 11 0
-2 -19 0
1 35 0
-7 -5 16 0
35 -21 -31 16 -24 -5 0
-38 34 -16 -27 0
-27 14 13 0
-27 34 -2 -24 -15 0
-8 33 -11 -35 14 1 0
38 0
